n_res = 4;
rc = [ 32, 26, 31, 31 ];
n_tasks = 30;
d = [ 1, 6, 9, 6, 2, 5, 7, 2, 7, 4, 5, 3, 7, 8, 7, 5, 1, 5, 6, 9, 6, 2, 9, 6, 7, 9, 8, 7, 4, 9 ];
rr = [| 6, 2, 4, 7, 6, 7, 10, 3, 1, 7, 8, 10, 4, 4, 6, 4, 9, 10, 3, 5, 1, 8, 9, 6, 5, 5, 6, 8, 9, 8
      | 5, 9, 5, 6, 7, 1, 5, 5, 6, 1, 4, 2, 3, 10, 7, 5, 2, 3, 5, 8, 8, 10, 9, 1, 4, 3, 10, 6, 1, 4
      | 3, 9, 9, 8, 4, 4, 8, 4, 6, 5, 5, 9, 8, 2, 8, 9, 5, 10, 6, 8, 4, 5, 5, 9, 9, 4, 4, 8, 1, 3
      | 5, 5, 8, 6, 5, 1, 5, 10, 8, 2, 4, 10, 10, 10, 8, 5, 9, 9, 2, 7, 7, 3, 7, 5, 10, 6, 7, 4, 2, 6 |];
suc = [ { 2 }, 
        { 1 }, 
        { 4 }, 
        { 3 }, 
        { 6 }, 
        { 5 }, 
        { 8 }, 
        { 7 }, 
        { 10 }, 
        { 9 }, 
        { 12 }, 
        { 11 }, 
        { 14 }, 
        { 13 }, 
        { 16 }, 
        { 15 }, 
        { 18 }, 
        { 17 }, 
        { 20 }, 
        { 19 }, 
        { 22 }, 
        { 21 }, 
        { 24 }, 
        { 23 }, 
        { 26 }, 
        { 25 }, 
        { 28 }, 
        { 27 }, 
        { 30 }, 
        { 29 }]; 
